# Objective value = 1.9876349843850057e+03
x[0] 0
x[1] 1
x[2] 0
x[3] 1
x[4] 1
x[5] 1
x[6] 0
x[7] 0
x[8] 0
x[9] 1
x[10] 1
x[11] 1
x[12] 1
x[13] 1
x[14] 0
x[15] 1
x[16] 1
x[17] 0
x[18] 0
x[19] 0
x[20] 1
x[21] 0
x[22] 1
x[23] 0
x[24] 0
x[25] 1
x[26] 1
x[27] 0
x[28] 1
x[29] 1
x[30] 1
x[31] 0
x[32] 0
x[33] 1
x[34] 1
x[35] 0
x[36] 0
x[37] 1
x[38] 1
x[39] 1
x[40] 1
x[41] 0
x[42] 1
x[43] 0
x[44] 0
x[45] 0
x[46] 1
x[47] 0
x[48] 1
x[49] 0
x[50] 0
x[51] 1
x[52] 0
x[53] 1
x[54] 1
x[55] 0
x[56] 1
x[57] 1
x[58] 1
x[59] 1
x[60] 1
x[61] 1
x[62] 0
x[63] 1
x[64] 1
x[65] 0
x[66] 0
x[67] 1
x[68] 0
x[69] 0
x[70] 0
x[71] 1
x[72] 1
x[73] 0
x[74] 1
x[75] 1
x[76] 1
x[77] 0
x[78] 1
x[79] 1
x[80] 1
x[81] 1
x[82] 1
x[83] 0
x[84] 0
x[85] 0
x[86] 0
x[87] 1
x[88] 1
x[89] 1
x[90] 0
x[91] 0
x[92] 1
x[93] 1
x[94] 0
x[95] 0
x[96] 1
x[97] 0
x[98] 0
x[99] 0
x[100] 1
x[101] 0
x[102] 0
x[103] 1
x[104] 1
x[105] 0
x[106] 0
x[107] 0
x[108] 1
x[109] 1
x[110] 1
x[111] 1
x[112] 0
x[113] 1
x[114] 1
x[115] 1
x[116] 0
x[117] 0
x[118] 1
x[119] 1
x[120] 0
x[121] 1
x[122] 1
x[123] 0
x[124] 1
x[125] 1
x[126] 1
x[127] 0
x[128] 0
x[129] 0
x[130] 1
x[131] 1
x[132] 0
x[133] 0
x[134] 1
x[135] 1
x[136] 0
x[137] 1
x[138] 0
x[139] 0
x[140] 1
x[141] 1
x[142] 1
x[143] 0
x[144] 0
x[145] 0
x[146] 1
x[147] 1
x[148] 0
x[149] 0
x[150] 1
x[151] 1
x[152] 1
x[153] 1
x[154] 0
x[155] 1
x[156] 0
x[157] 0
x[158] 1
x[159] 1
x[160] 0
x[161] 1
x[162] 0
x[163] 1
x[164] 0
x[165] 1
x[166] 1
x[167] 1
x[168] 0
x[169] 1
x[170] 1
x[171] 0
x[172] 1
x[173] 1
x[174] 0
x[175] 1
x[176] 0
x[177] 1
x[178] 1
x[179] 0
x[180] 1
x[181] 0
x[182] 1
x[183] 1
x[184] 1
x[185] 1
x[186] 0
x[187] 0
x[188] 0
x[189] 1
x[190] 1
x[191] 1
x[192] 1
x[193] 0
x[194] 0
x[195] 0
x[196] 0
x[197] 1
x[198] 0
x[199] 0
x[200] 1
x[201] 0
x[202] 1
x[203] 1
x[204] 0
x[205] 0
x[206] 0
x[207] 1
x[208] 1
x[209] 0
x[210] 1
x[211] 0
x[212] 0
x[213] 1
x[214] 1
x[215] 1
x[216] 1
x[217] 0
x[218] 0
x[219] 1
x[220] 1
x[221] 1
x[222] 0
x[223] 0
x[224] 0
x[225] 1
x[226] 0
x[227] 0
x[228] 1
x[229] 0
x[230] 0
x[231] 0
x[232] 0
x[233] 1
x[234] 1
x[235] 0
x[236] 1
x[237] 1
x[238] 1
x[239] 1
x[240] 1
x[241] 0
x[242] 1
x[243] 0
x[244] 0
x[245] 1
x[246] 1
x[247] 0
x[248] 1
x[249] 1
x[250] 1
x[251] 1
x[252] 0
x[253] 1
x[254] 1
x[255] 0
x[256] 1
x[257] 1
x[258] 1
x[259] 1
x[260] 1
x[261] 1
x[262] 1
x[263] 1
x[264] 0
x[265] 0
x[266] 1
x[267] 1
x[268] 1
x[269] 0
x[270] 1
x[271] 0
x[272] 0
x[273] 1
x[274] 0
x[275] 1
x[276] 1
x[277] 0
x[278] 1
x[279] 0
x[280] 1
x[281] 1
x[282] 1
x[283] 1
x[284] 0
x[285] 1
x[286] 1
x[287] 1
x[288] 0
x[289] 0
x[290] 1
x[291] 0
x[292] 0
x[293] 1
x[294] 1
x[295] 0
x[296] 1
x[297] 1
x[298] 0
x[299] 0
x[300] 1
x[301] 0
x[302] 0
x[303] 0
x[304] 0
x[305] 0
x[306] 0
x[307] 1
x[308] 1
x[309] 1
x[310] 1
x[311] 1
x[312] 1
x[313] 1
x[314] 1
x[315] 0
x[316] 1
x[317] 1
x[318] 1
x[319] 0
x[320] 0
x[321] 1
x[322] 0
x[323] 1
x[324] 1
x[325] 0
x[326] 0
x[327] 0
x[328] 0
x[329] 0
x[330] 1
x[331] 1
x[332] 1
x[333] 1
x[334] 1
x[335] 1
x[336] 1
x[337] 0
x[338] 0
x[339] 1
x[340] 0
x[341] 0
x[342] 1
x[343] 0
x[344] 0
x[345] 0
x[346] 0
x[347] 1
x[348] 1
x[349] 0
x[350] 1
x[351] 1
x[352] 1
x[353] 1
x[354] 0
x[355] 1
x[356] 1
x[357] 0
x[358] 0
x[359] 0
x[360] 1
x[361] 1
x[362] 1
x[363] 0
x[364] 0
x[365] 1
x[366] 1
x[367] 1
x[368] 1
x[369] 0
x[370] 0
x[371] 1
x[372] 1
x[373] 1
x[374] 0
x[375] 1
x[376] 1
x[377] 0
x[378] 1
x[379] 0
x[380] 0
x[381] 0
x[382] 1
x[383] 1
x[384] 1
x[385] 1
x[386] 0
x[387] 1
x[388] 0
x[389] 1
x[390] 1
x[391] 1
x[392] 1
x[393] 0
x[394] 1
x[395] 0
x[396] 0
x[397] 0
x[398] 0
x[399] 1
x[400] 0
x[401] 0
x[402] 0
x[403] 0
x[404] 0
x[405] 1
x[406] 1
x[407] 1
x[408] 1
x[409] 1
x[410] 1
x[411] 0
x[412] 1
x[413] 0
x[414] 0
x[415] 1
x[416] 1
x[417] 0
x[418] 1
x[419] 1
x[420] 0
x[421] 0
x[422] 0
x[423] 1
x[424] 0
x[425] 0
x[426] 0
x[427] 1
x[428] 1
x[429] 0
x[430] 1
x[431] 1
x[432] 0
x[433] 1
x[434] 1
x[435] 1
x[436] 1
x[437] 0
x[438] 1
x[439] 0
x[440] 1
x[441] 1
x[442] 1
x[443] 0
x[444] 0
x[445] 0
x[446] 1
x[447] 0
x[448] 0
x[449] 1
x[450] 0
x[451] 1
x[452] 0
x[453] 0
x[454] 0
x[455] 1
x[456] 1
x[457] 1
x[458] 1
x[459] 1
x[460] 1
x[461] 1
x[462] 1
x[463] 1
x[464] 0
x[465] 0
x[466] 1
x[467] 0
x[468] 1
x[469] 0
x[470] 1
x[471] 1
x[472] 0
x[473] 0
x[474] 0
x[475] 0
x[476] 1
x[477] 0
x[478] 0
x[479] 1
x[480] 0
x[481] 1
x[482] 0
x[483] 1
x[484] 0
x[485] 1
x[486] 0
x[487] 0
x[488] 1
x[489] 0
x[490] 1
x[491] 0
x[492] 1
x[493] 1
x[494] 1
x[495] 0
x[496] 1
x[497] 1
x[498] 1
x[499] 1
x[500] 1
x[501] 1
x[502] 1
x[503] 1
x[504] 0
x[505] 0
x[506] 1
x[507] 0
x[508] 1
x[509] 1
x[510] 1
x[511] 0
x[512] 1
x[513] 0
x[514] 1
x[515] 0
x[516] 1
x[517] 0
x[518] 1
x[519] 1
x[520] 0
x[521] 1
x[522] 1
x[523] 0
x[524] 0
x[525] 1
x[526] 1
x[527] 1
x[528] 1
x[529] 0
x[530] 0
x[531] 0
x[532] 1
x[533] 0
x[534] 1
x[535] 0
x[536] 0
x[537] 1
x[538] 1
x[539] 1
x[540] 0
x[541] 1
x[542] 1
x[543] 0
x[544] 1
x[545] 0
x[546] 1
x[547] 1
x[548] 0
x[549] 1
x[550] 0
x[551] 1
x[552] 1
x[553] 1
x[554] 1
x[555] 1
x[556] 0
x[557] 0
x[558] 0
x[559] 1
x[560] 0
x[561] 0
x[562] 0
x[563] 0
x[564] 1
x[565] 0
x[566] 1
x[567] 1
x[568] 1
x[569] 0
x[570] 1
x[571] 0
x[572] 1
x[573] 1
x[574] 1
x[575] 0
x[576] 1
x[577] 0
x[578] 1
x[579] 0
x[580] 1
x[581] 1
x[582] 1
x[583] 1
x[584] 1
x[585] 1
x[586] 1
x[587] 0
x[588] 0
x[589] 0
x[590] 0
x[591] 0
x[592] 0
x[593] 1
x[594] 0
x[595] 1
x[596] 0
x[597] 0
x[598] 0
x[599] 0
x[600] 0
x[601] 1
x[602] 0
x[603] 1
x[604] 1
x[605] 0
x[606] 0
x[607] 0
x[608] 1
x[609] 1
x[610] 1
x[611] 0
x[612] 1
x[613] 1
x[614] 0
x[615] 0
x[616] 1
x[617] 1
x[618] 0
x[619] 1
x[620] 0
x[621] 1
x[622] 1
x[623] 0
x[624] 0
x[625] 0
x[626] 1
x[627] 0
x[628] 0
x[629] 1
x[630] 0
x[631] 1
x[632] 0
x[633] 1
x[634] 0
x[635] 1
x[636] 1
x[637] 0
x[638] 0
x[639] 1
x[640] 0
x[641] 1
x[642] 0
x[643] 0
x[644] 0
x[645] 1
x[646] 1
x[647] 1
x[648] 1
x[649] 1
x[650] 0
x[651] 1
x[652] 1
x[653] 1
x[654] 1
x[655] 0
x[656] 0
x[657] 1
x[658] 1
x[659] 1
x[660] 1
x[661] 1
x[662] 0
x[663] 1
x[664] 0
x[665] 1
x[666] 1
x[667] 0
x[668] 0
x[669] 1
x[670] 1
x[671] 1
x[672] 1
x[673] 1
x[674] 0
x[675] 1
x[676] 1
x[677] 1
x[678] 1
x[679] 0
x[680] 1
x[681] 1
x[682] 0
x[683] 1
x[684] 1
x[685] 0
x[686] 0
x[687] 1
x[688] 0
x[689] 0
x[690] 1
x[691] 0
x[692] 0
x[693] 1
x[694] 0
x[695] 0
x[696] 0
x[697] 0
x[698] 1
x[699] 1
x[700] 0
x[701] 0
x[702] 1
x[703] 1
x[704] 0
x[705] 1
x[706] 0
x[707] 1
x[708] 1
x[709] 1
x[710] 1
x[711] 0
x[712] 1
x[713] 0
x[714] 1
x[715] 1
x[716] 1
x[717] 1
x[718] 1
x[719] 1
x[720] 0
x[721] 0
x[722] 1
x[723] 0
x[724] 1
x[725] 0
x[726] 1
x[727] 0
x[728] 0
x[729] 0
x[730] 1
x[731] 1
x[732] 1
x[733] 1
x[734] 1
x[735] 0
x[736] 1
x[737] 1
x[738] 1
x[739] 1
x[740] 1
x[741] 1
x[742] 0
x[743] 1
x[744] 0
x[745] 0
x[746] 0
x[747] 1
x[748] 1
x[749] 1
x[750] 0
x[751] 1
x[752] 1
x[753] 1
x[754] 0
x[755] 1
x[756] 1
x[757] 1
x[758] 0
x[759] 1
x[760] 1
x[761] 1
x[762] 1
x[763] 1
x[764] 1
x[765] 1
x[766] 1
x[767] 1
x[768] 0
x[769] 0
x[770] 0
x[771] 1
x[772] 1
x[773] 0
x[774] 1
x[775] 1
x[776] 1
x[777] 1
x[778] 1
x[779] 1
x[780] 0
x[781] 0
x[782] 1
x[783] 1
x[784] 0
x[785] 0
x[786] 1
x[787] 1
x[788] 0
x[789] 1
x[790] 0
x[791] 1
x[792] 1
x[793] 1
x[794] 0
x[795] 1
x[796] 0
x[797] 1
x[798] 0
x[799] 1
x[800] 1
x[801] 1
x[802] 1
x[803] 1
x[804] 0
x[805] 1
x[806] 0
x[807] 1
x[808] 1
x[809] 0
x[810] 1
x[811] 0
x[812] 1
x[813] 0
x[814] 1
x[815] 1
x[816] 1
x[817] 1
x[818] 1
x[819] 0
x[820] 0
x[821] 0
x[822] 0
x[823] 0
x[824] 1
x[825] 0
x[826] 1
x[827] 0
x[828] 0
x[829] 1
x[830] 1
x[831] 0
x[832] 1
x[833] 0
x[834] 0
x[835] 0
x[836] 0
x[837] 1
x[838] 0
x[839] 1
x[840] 0
x[841] 1
x[842] 0
x[843] 1
x[844] 0
x[845] 1
x[846] 0
x[847] 1
x[848] 1
x[849] 1
x[850] 0
x[851] 1
x[852] 0
x[853] 1
x[854] 0
x[855] 0
x[856] 1
x[857] 1
x[858] 0
x[859] 1
x[860] 0
x[861] 1
x[862] 1
x[863] 0
x[864] 1
x[865] 1
x[866] 0
x[867] 0
x[868] 0
x[869] 1
x[870] 0
x[871] 0
x[872] 1
x[873] 0
x[874] 0
x[875] 1
x[876] 1
x[877] 1
x[878] 0
x[879] 0
x[880] 1
x[881] 0
x[882] 1
x[883] 0
x[884] 0
x[885] 1
x[886] 1
x[887] 1
x[888] 1
x[889] 1
x[890] 0
x[891] 0
x[892] 1
x[893] 1
x[894] 0
x[895] 0
x[896] 1
x[897] 1
x[898] 1
x[899] 1
x[900] 0
x[901] 1
x[902] 1
x[903] 0
x[904] 1
x[905] 0
x[906] 1
x[907] 1
x[908] 0
x[909] 1
x[910] 1
x[911] 1
x[912] 0
x[913] 0
x[914] 1
x[915] 1
x[916] 1
x[917] 0
x[918] 1
x[919] 1
x[920] 0
x[921] 0
x[922] 0
x[923] 1
x[924] 1
x[925] 1
x[926] 0
x[927] 0
x[928] 0
x[929] 0
x[930] 1
x[931] 0
x[932] 0
x[933] 1
x[934] 1
x[935] 0
x[936] 1
x[937] 1
x[938] 0
x[939] 1
x[940] 1
x[941] 1
x[942] 0
x[943] 1
x[944] 1
x[945] 1
x[946] 1
x[947] 1
x[948] 1
x[949] 1
x[950] 1
x[951] 0
x[952] 1
x[953] 0
x[954] 1
x[955] 1
x[956] 1
x[957] 0
x[958] 1
x[959] 0
x[960] 1
x[961] 1
x[962] 1
x[963] 1
x[964] 1
x[965] 1
x[966] 0
x[967] 1
x[968] 0
x[969] 0
x[970] 0
x[971] 0
x[972] 1
x[973] 0
x[974] 1
x[975] 1
x[976] 0
x[977] 1
x[978] 0
x[979] 1
x[980] 0
x[981] 0
x[982] 0
x[983] 0
x[984] 1
x[985] 1
x[986] 0
x[987] 1
x[988] 1
x[989] 0
x[990] 0
x[991] 1
x[992] 1
x[993] 1
x[994] 1
x[995] 0
x[996] 0
x[997] 0
x[998] 1
x[999] 0
